
%FILE DATA:	Soccer Computational Problem for MiniZinc Models	%
%AUTHOR:	Jack Wall	%
%CONTACT:  	116397063@umail.ucc.ie			%
%LAST UPDATE:	03/02/2020, 19:05:33						%
%DESCRIPTION: 	120 games played with 12 games left				%


n=12; %number of teams

%Games to play
games=[|8,2|9,6|1,6|12,9|7,6|10,2|7,11|6,7|8,1|6,2|7,10|3,6|];

%Initial points
iPoints=[15,31,24,30,30,20,29,29,23,32,35,20];

%POSITION CONSTRAINTS
% [|teamID, operator, position|...]
% operators index:
%  1 for =  operator
%  2 for >  operator
%  3 for >= operator
%  4 for <  operator
%  5 for <= operator
positionConstraints=[|7,4,2|10,1,2|11,5,3|];